60
909
30
0 4
0 9
0 13
0 15
0 16
0 17
0 19
0 20
0 21
0 22
0 24
0 25
0 27
0 28
0 30
0 31
0 35
0 36
0 37
0 38
0 40
0 41
0 45
0 47
0 48
0 50
0 51
0 52
0 54
0 55
0 56
0 57
0 58
1 2
1 3
1 4
1 5
1 7
1 10
1 11
1 13
1 17
1 19
1 20
1 21
1 23
1 24
1 26
1 27
1 29
1 30
1 31
1 32
1 33
1 36
1 38
1 39
1 41
1 43
1 44
1 46
1 47
1 50
1 52
1 54
1 55
1 56
1 57
2 3
2 4
2 5
2 7
2 10
2 11
2 12
2 14
2 16
2 17
2 18
2 19
2 20
2 22
2 23
2 24
2 25
2 29
2 30
2 31
2 32
2 33
2 34
2 35
2 38
2 40
2 41
2 43
2 45
2 50
2 51
2 53
2 55
2 56
2 58
3 4
3 7
3 8
3 10
3 11
3 12
3 15
3 17
3 19
3 21
3 22
3 23
3 24
3 25
3 26
3 28
3 29
3 31
3 35
3 37
3 39
3 42
3 44
3 45
3 55
4 5
4 6
4 11
4 14
4 15
4 16
4 17
4 20
4 21
4 22
4 24
4 25
4 26
4 27
4 29
4 32
4 34
4 36
4 37
4 38
4 44
4 45
4 46
4 53
4 54
4 56
5 6
5 7
5 9
5 11
5 12
5 13
5 14
5 18
5 20
5 22
5 23
5 25
5 26
5 27
5 28
5 30
5 32
5 33
5 37
5 38
5 42
5 43
5 46
5 47
5 48
5 49
5 50
5 52
5 57
5 58
5 59
6 8
6 9
6 12
6 15
6 16
6 17
6 22
6 24
6 26
6 29
6 31
6 32
6 33
6 34
6 36
6 38
6 39
6 40
6 45
6 46
6 47
6 48
6 51
6 52
6 53
6 54
6 57
7 8
7 13
7 14
7 16
7 17
7 21
7 24
7 25
7 26
7 30
7 35
7 37
7 40
7 42
7 44
7 45
7 49
7 51
7 52
7 54
7 55
7 56
7 58
7 59
8 9
8 11
8 12
8 13
8 14
8 15
8 16
8 17
8 19
8 21
8 22
8 30
8 31
8 36
8 37
8 38
8 43
8 44
8 46
8 48
8 49
8 51
8 52
8 53
8 54
8 55
8 56
8 57
9 11
9 12
9 13
9 17
9 18
9 19
9 20
9 22
9 23
9 26
9 27
9 28
9 30
9 31
9 33
9 38
9 42
9 45
9 46
9 47
9 48
9 49
9 50
9 54
9 55
9 59
10 14
10 16
10 19
10 22
10 23
10 27
10 30
10 31
10 33
10 35
10 40
10 42
10 43
10 44
10 45
10 47
10 50
10 51
10 52
10 56
10 57
10 58
11 12
11 13
11 14
11 16
11 20
11 22
11 25
11 26
11 28
11 32
11 33
11 35
11 36
11 38
11 39
11 40
11 42
11 45
11 46
11 51
11 52
11 53
11 54
11 55
11 56
11 57
11 58
12 15
12 17
12 18
12 21
12 22
12 24
12 27
12 30
12 31
12 34
12 35
12 39
12 43
12 44
12 49
12 50
12 51
12 52
12 53
12 55
12 58
13 14
13 15
13 20
13 21
13 22
13 23
13 28
13 31
13 32
13 34
13 37
13 42
13 43
13 45
13 46
13 47
13 50
13 52
13 53
13 54
13 58
14 15
14 17
14 19
14 21
14 22
14 23
14 26
14 27
14 28
14 30
14 31
14 34
14 35
14 36
14 39
14 42
14 43
14 44
14 45
14 49
14 50
14 53
14 55
14 56
14 57
14 58
15 16
15 20
15 24
15 30
15 33
15 35
15 36
15 41
15 43
15 44
15 45
15 50
15 52
15 53
15 55
15 56
15 57
16 17
16 18
16 19
16 25
16 26
16 27
16 28
16 29
16 33
16 34
16 37
16 38
16 39
16 40
16 41
16 42
16 44
16 45
16 46
16 47
16 48
16 50
16 52
16 54
16 57
16 58
16 59
17 18
17 19
17 20
17 21
17 23
17 26
17 28
17 32
17 35
17 39
17 42
17 44
17 48
17 50
17 53
17 54
17 56
17 58
18 19
18 21
18 22
18 23
18 24
18 25
18 27
18 28
18 33
18 35
18 37
18 38
18 40
18 42
18 43
18 45
18 47
18 48
18 49
18 50
18 52
18 53
18 55
18 57
18 58
18 59
19 20
19 22
19 27
19 30
19 35
19 36
19 39
19 41
19 42
19 45
19 47
19 49
19 52
19 54
19 55
19 56
19 57
19 58
19 59
20 21
20 22
20 25
20 26
20 27
20 28
20 29
20 31
20 32
20 33
20 34
20 35
20 36
20 37
20 38
20 40
20 41
20 43
20 45
20 46
20 47
20 48
20 50
20 52
20 53
20 54
20 55
20 57
20 58
21 24
21 25
21 29
21 30
21 32
21 34
21 35
21 36
21 44
21 45
21 46
21 47
21 48
21 49
21 50
21 52
21 53
21 54
21 55
22 23
22 25
22 26
22 27
22 29
22 30
22 31
22 33
22 36
22 40
22 41
22 42
22 44
22 45
22 46
22 49
22 52
22 53
22 55
22 56
22 58
23 25
23 27
23 28
23 30
23 33
23 34
23 35
23 36
23 40
23 47
23 50
23 52
23 54
23 59
24 27
24 34
24 35
24 40
24 42
24 47
24 50
24 51
24 52
24 54
24 55
24 57
24 58
24 59
25 27
25 30
25 33
25 39
25 40
25 41
25 42
25 45
25 46
25 47
25 49
25 50
25 52
25 54
25 55
25 56
25 58
25 59
26 27
26 30
26 31
26 34
26 35
26 36
26 38
26 39
26 40
26 41
26 42
26 44
26 51
26 52
26 54
26 55
26 56
26 57
26 58
26 59
27 28
27 30
27 31
27 32
27 34
27 37
27 38
27 39
27 40
27 43
27 46
27 49
27 50
27 51
27 52
27 53
27 54
27 55
27 56
27 58
27 59
28 29
28 34
28 35
28 37
28 39
28 40
28 41
28 42
28 44
28 47
28 48
28 50
28 51
28 53
28 55
28 56
29 30
29 31
29 34
29 36
29 37
29 38
29 41
29 45
29 49
29 50
29 53
29 56
30 31
30 36
30 37
30 43
30 44
30 45
30 51
30 53
30 57
30 59
31 35
31 38
31 39
31 41
31 48
31 49
31 51
31 52
31 53
31 56
31 57
31 59
32 37
32 40
32 44
32 50
32 52
32 53
32 57
32 59
33 37
33 39
33 42
33 45
33 46
33 47
33 49
33 50
33 51
33 52
33 54
33 57
33 58
34 35
34 36
34 38
34 39
34 44
34 45
34 48
34 49
34 50
34 51
34 52
34 57
34 58
34 59
35 37
35 38
35 39
35 41
35 47
35 48
35 49
35 52
35 54
35 55
36 38
36 39
36 40
36 42
36 43
36 45
36 47
36 49
36 50
36 51
36 54
36 56
36 57
36 59
37 38
37 40
37 42
37 43
37 48
37 49
37 51
37 52
37 55
37 56
37 58
37 59
38 40
38 42
38 43
38 44
38 45
38 48
38 50
38 51
38 55
38 57
38 58
38 59
39 40
39 41
39 45
39 47
39 49
39 51
39 52
39 53
39 56
39 58
40 42
40 44
40 46
40 49
40 51
40 55
40 58
40 59
41 43
41 44
41 45
41 50
41 51
41 52
41 57
41 58
42 43
42 46
42 47
42 50
42 53
42 54
42 55
42 56
42 57
43 44
43 46
43 47
43 48
43 51
43 52
43 53
43 54
43 56
43 59
44 45
44 46
44 51
44 55
44 57
44 58
44 59
45 47
45 51
45 52
45 54
45 56
46 48
46 50
46 51
46 52
46 55
46 57
47 49
47 50
47 51
47 52
47 54
47 57
47 58
48 49
48 50
48 51
48 53
48 55
48 57
48 58
48 59
49 50
49 54
49 59
50 51
50 54
50 57
50 59
51 52
51 56
51 57
51 58
51 59
52 53
52 55
52 56
52 57
52 58
53 54
53 56
53 57
53 58
53 59
54 57
55 56
55 59
56 57
56 59
58 59
14 20
50 57
17 29
32 40
2 55
30 42
35 38
11 52
3 47
6 45
10 48
36 46
9 28
27 39
12 25
1 19
13 54
0 58
15 22
37 56
41 49
23 24
18 59
4 43
31 34
5 16
21 44
8 33
7 53
26 51
